% seed = 0

mint = 39;
% maxt = 262;

nActs = 92;
dur = [0,3,3,1,1,1,4,6,2,6,2,2,3,4,3,3,1,5,4,4,3,2,2,5,2,3,2,3,1,3,6,3,3,3,6,2,2,2,1,5,4,3,3,5,3,2,1,3,1,4,3,3,3,4,2,3,2,2,4,2,4,1,1,3,2,4,2,2,4,3,3,5,3,5,4,3,4,4,3,4,2,1,2,4,3,1,4,2,2,1,2,0];

nSkills = 12;
sreq = [| 0,0,0,0,0,0,0,0,0,0,0,0,
	| 0,0,1,0,0,0,0,0,0,0,0,0,
	| 0,1,0,0,2,1,0,0,1,0,0,0,
	| 0,0,0,1,1,1,0,1,0,0,0,0,
	| 0,0,0,0,2,0,0,0,0,0,0,0,
	| 0,1,0,0,2,0,0,1,1,0,1,0,
	| 0,1,0,0,0,0,0,0,0,0,0,0,
	| 0,1,0,0,0,0,1,1,1,0,0,0,
	| 0,1,0,0,0,1,0,1,1,0,0,0,
	| 0,0,0,0,0,0,0,2,0,0,0,0,
	| 0,2,1,1,0,0,0,0,1,1,0,0,
	| 0,0,1,1,0,1,0,0,1,0,0,0,
	| 0,0,2,0,1,0,0,0,1,0,0,0,
	| 0,0,2,0,1,1,1,0,1,0,0,1,
	| 0,0,0,1,0,2,0,0,1,1,1,0,
	| 0,1,0,1,1,1,0,0,0,0,0,0,
	| 0,1,0,0,2,1,0,0,0,0,0,0,
	| 0,1,2,0,0,0,0,0,1,1,0,0,
	| 0,0,2,0,1,0,0,0,1,0,0,0,
	| 0,0,1,0,1,1,2,0,0,0,0,0,
	| 0,0,0,0,1,0,0,0,0,0,0,0,
	| 0,0,0,1,0,0,0,0,0,0,1,0,
	| 0,2,1,0,1,1,0,0,1,0,0,0,
	| 0,0,0,0,0,0,0,0,1,0,0,0,
	| 0,0,1,1,0,1,0,1,1,1,0,0,
	| 0,0,0,0,0,0,0,0,0,0,1,0,
	| 0,0,0,0,1,1,0,0,1,0,1,0,
	| 0,0,0,2,0,0,1,0,0,0,0,0,
	| 0,0,0,1,1,1,0,0,1,0,1,0,
	| 0,0,1,1,2,0,0,1,1,0,0,0,
	| 0,0,0,0,2,1,0,0,1,0,1,0,
	| 0,0,0,0,1,0,0,0,2,0,0,0,
	| 0,0,0,1,0,1,0,1,2,0,0,0,
	| 0,0,0,0,1,0,0,1,0,0,0,0,
	| 0,0,0,1,0,0,0,0,1,1,0,0,
	| 0,0,0,0,0,1,0,0,0,0,0,0,
	| 0,0,0,1,0,1,0,1,2,0,0,0,
	| 0,0,2,0,1,0,1,0,0,0,0,0,
	| 0,0,0,0,1,2,0,0,2,0,0,0,
	| 0,0,1,0,2,1,0,0,0,0,0,0,
	| 0,0,0,0,0,1,0,0,0,0,0,0,
	| 0,0,1,0,0,2,0,0,1,1,0,0,
	| 0,0,1,0,1,0,0,0,0,0,0,0,
	| 0,0,0,0,0,0,0,1,0,0,0,0,
	| 0,0,0,0,0,0,0,1,0,0,0,0,
	| 0,0,0,1,0,1,0,1,2,0,1,0,
	| 0,0,0,0,1,0,0,0,0,0,0,0,
	| 0,0,0,0,1,1,0,0,0,0,0,0,
	| 0,0,0,0,0,1,0,1,0,0,0,0,
	| 0,0,1,0,0,0,1,0,0,0,0,0,
	| 0,0,2,0,0,1,0,0,1,1,0,0,
	| 0,0,0,0,0,0,0,0,1,0,1,0,
	| 0,0,0,0,1,1,0,0,1,0,0,0,
	| 0,1,0,0,0,2,0,0,1,0,0,0,
	| 0,0,2,0,0,0,0,0,2,0,0,0,
	| 0,0,1,0,0,0,0,0,1,0,0,0,
	| 0,1,0,1,0,1,0,0,1,0,1,0,
	| 0,0,0,0,1,0,0,0,1,0,0,0,
	| 0,0,0,0,0,2,0,2,1,0,0,0,
	| 1,0,0,1,1,0,0,0,1,0,0,0,
	| 0,0,1,0,1,1,0,1,0,0,1,0,
	| 1,0,1,0,0,0,0,0,0,0,0,0,
	| 1,0,0,0,0,2,0,0,0,1,0,0,
	| 0,0,3,1,1,0,0,0,0,1,0,0,
	| 0,0,0,0,0,1,0,0,2,0,0,0,
	| 0,0,1,0,1,1,0,0,1,0,0,0,
	| 0,1,0,0,0,1,0,1,0,0,0,0,
	| 0,0,0,0,0,0,0,1,0,0,0,0,
	| 0,0,0,0,1,0,0,0,0,0,0,0,
	| 0,0,0,0,1,0,0,0,1,0,0,0,
	| 0,0,0,2,1,1,0,0,1,0,0,0,
	| 0,0,0,0,0,2,0,0,2,0,0,0,
	| 0,0,0,0,0,0,0,0,1,0,0,0,
	| 0,0,1,0,1,2,1,0,0,0,1,0,
	| 0,0,0,0,0,0,0,2,0,0,0,0,
	| 0,0,0,0,0,1,0,0,1,0,1,0,
	| 0,1,0,0,0,1,0,3,0,0,0,0,
	| 0,0,1,2,0,1,0,0,1,0,0,0,
	| 0,0,0,0,1,3,0,1,1,0,0,0,
	| 0,0,1,0,2,1,0,2,0,0,0,0,
	| 0,0,2,0,0,3,0,0,1,0,0,0,
	| 0,0,0,0,0,1,0,1,2,0,0,0,
	| 1,0,3,1,0,0,0,1,0,0,0,0,
	| 1,0,1,0,0,1,0,1,1,0,0,0,
	| 0,0,1,0,0,1,0,1,0,1,0,0,
	| 0,0,0,0,0,0,0,1,0,0,0,0,
	| 0,1,0,0,2,0,0,0,0,0,0,0,
	| 0,0,0,0,0,0,0,1,0,0,0,0,
	| 0,0,1,0,0,1,1,0,0,0,0,0,
	| 0,0,1,0,2,1,0,1,0,0,0,0,
	| 0,0,1,0,0,1,0,0,0,1,0,0,
	| 0,0,0,0,0,0,0,0,0,0,0,0, |];

% SumOfsreq = 324;

nResources = 20;
mastery = [| false,false,true,false,false,true,true,true,true,false,false,false,
	| false,false,false,false,false,false,false,true,true,false,false,false,
	| false,false,false,true,true,true,false,false,false,false,false,false,
	| false,false,true,false,false,false,false,false,false,false,false,false,
	| false,false,true,false,false,false,false,false,false,false,false,false,
	| false,false,false,false,false,false,false,true,true,true,true,true,
	| false,false,false,false,false,false,false,false,false,true,true,true,
	| false,false,false,false,false,false,false,false,true,false,false,false,
	| false,false,false,false,true,true,true,true,true,false,false,false,
	| false,false,false,true,true,true,false,false,false,false,false,true,
	| false,false,false,false,true,true,false,false,false,false,false,false,
	| false,false,false,false,false,false,true,true,true,false,false,false,
	| true,true,true,false,false,false,false,false,false,false,false,false,
	| false,false,false,false,false,false,false,false,true,false,false,false,
	| false,false,false,false,false,false,false,true,true,false,false,false,
	| false,false,false,true,true,true,false,false,false,false,false,true,
	| false,false,false,true,true,true,false,false,false,false,false,false,
	| false,true,true,false,false,false,false,false,false,false,false,false,
	| false,false,false,false,false,true,false,false,false,false,false,false,
	| false,false,true,false,false,false,false,false,false,false,false,false, |];

nPrecs = 138;
pred = [1,1,1,2,3,3,3,4,4,4,5,5,5,6,6,7,7,7,8,9,9,10,10,11,12,12,12,13,13,13,14,15,16,16,16,17,17,17,18,18,18,19,19,19,20,21,21,21,22,22,23,23,24,24,25,26,26,26,27,27,28,28,28,29,29,30,31,32,33,33,34,35,35,36,37,38,39,40,41,42,43,43,44,45,46,47,48,48,49,49,50,51,52,53,54,55,56,57,58,59,60,61,61,62,62,62,63,64,65,66,66,67,68,69,70,70,71,72,73,74,75,76,77,78,79,80,81,82,83,84,85,85,86,87,88,89,90,91];
succ = [2,3,4,7,10,11,8,12,5,6,61,14,56,15,24,9,19,22,44,17,13,43,37,51,60,20,13,25,18,16,27,70,34,38,39,36,31,23,50,62,48,53,21,63,41,84,47,24,75,29,26,46,61,64,69,67,28,30,35,72,52,45,54,42,83,32,74,33,78,71,89,49,40,84,70,89,52,66,90,79,65,84,62,81,59,85,68,56,60,64,82,59,73,57,55,57,65,58,81,69,66,66,71,81,77,79,78,88,71,91,76,80,76,70,74,90,74,86,85,86,83,77,87,86,85,87,82,83,91,88,91,87,88,90,89,92,92,92];

nUnrels = 3070;
unpred = [2,2,2,2,2,2,2,2,2,2,2,2,2,2,2,2,2,2,2,2,2,2,3,3,3,3,3,3,3,3,3,3,3,3,3,3,3,3,3,3,3,3,3,3,3,3,3,3,3,3,3,3,3,3,3,3,3,3,3,3,3,3,3,3,3,3,3,3,3,3,3,3,3,3,3,3,3,3,3,3,3,3,3,4,4,4,4,4,4,4,4,4,4,4,4,4,4,4,4,4,4,4,4,4,4,4,4,4,4,4,4,4,4,4,4,4,4,4,4,4,4,5,5,5,5,5,5,5,5,5,5,5,5,5,5,5,5,5,5,5,5,5,5,5,5,5,5,5,5,5,5,5,5,5,5,5,5,5,5,5,5,5,5,5,5,5,5,5,5,5,5,5,5,5,5,5,5,5,5,5,5,5,5,5,5,6,6,6,6,6,6,6,6,6,6,6,6,6,6,6,6,6,6,6,6,6,6,6,6,6,6,6,6,6,6,6,6,6,6,6,6,6,6,6,6,6,6,6,6,6,6,6,6,6,6,6,6,6,6,6,6,6,6,6,6,6,6,6,6,6,6,6,6,6,7,7,7,7,7,7,7,7,7,7,7,7,7,7,7,7,7,7,8,8,8,8,8,8,8,8,8,8,8,8,8,8,8,8,8,8,8,8,8,8,8,8,8,8,8,8,8,8,8,8,8,8,8,8,8,8,8,8,8,8,8,8,8,8,8,8,8,8,8,8,8,8,8,8,8,8,8,8,8,8,8,8,8,8,8,8,8,8,8,8,9,9,9,9,9,9,9,9,9,9,9,9,9,9,9,9,9,9,9,9,9,9,9,9,9,9,9,9,9,9,10,10,10,10,10,10,10,10,10,10,10,10,10,10,10,10,10,10,10,10,10,10,10,10,10,10,10,10,10,10,10,10,10,10,10,10,10,10,10,10,10,10,10,10,10,10,10,10,10,10,10,10,10,10,10,10,10,10,10,10,10,10,10,10,10,10,10,10,10,10,11,11,11,11,11,11,11,11,11,11,11,11,11,11,11,11,11,11,11,11,11,11,11,11,11,11,11,11,11,11,11,11,11,11,11,11,11,11,11,11,11,11,11,11,11,11,11,11,11,11,11,11,11,11,11,11,11,11,11,11,11,11,11,11,11,11,11,11,11,11,11,12,12,12,12,12,12,12,12,12,12,12,12,12,12,12,12,12,12,12,12,12,12,12,12,12,12,12,12,12,12,12,12,12,12,12,12,12,12,12,12,12,12,12,13,13,13,13,13,13,13,13,13,13,13,13,13,13,13,13,13,13,13,13,13,13,13,13,13,13,13,13,13,13,13,13,13,13,13,13,13,13,13,13,13,13,13,13,13,13,13,14,14,14,14,14,14,14,14,14,14,14,14,14,14,14,14,14,14,14,14,14,14,14,14,14,14,14,14,14,14,14,14,14,14,14,14,14,14,14,14,14,14,14,14,14,14,14,14,14,14,14,14,14,14,14,14,14,14,14,14,14,15,15,15,15,15,15,15,15,15,15,15,15,15,15,15,15,15,15,15,15,15,15,15,15,15,15,15,15,15,15,15,15,15,15,15,15,15,15,15,15,15,15,15,15,15,15,15,15,15,15,15,15,15,15,15,15,15,15,15,15,15,15,15,15,15,15,15,15,15,15,16,16,16,16,16,16,16,16,16,16,16,16,16,16,16,16,16,16,16,16,16,16,16,16,16,16,16,16,16,16,16,16,16,16,16,16,16,16,16,16,16,16,16,16,16,16,16,16,16,16,16,16,16,16,16,16,16,16,16,16,16,16,16,16,16,17,17,17,17,17,17,17,17,17,17,17,17,17,17,17,17,17,17,17,17,17,17,17,17,17,17,17,17,17,17,17,17,17,17,17,17,17,17,17,18,18,18,18,18,18,18,18,18,18,18,18,18,18,18,18,18,18,18,18,18,18,18,18,18,18,18,18,18,18,18,18,18,18,18,18,18,18,18,18,18,18,18,18,18,18,18,18,18,18,18,18,19,19,19,19,19,19,19,19,19,19,19,19,19,19,19,19,19,19,19,19,19,19,19,19,19,19,19,19,19,19,19,19,19,19,19,19,19,19,19,19,19,19,19,19,19,19,20,20,20,20,20,20,20,20,20,20,20,20,20,20,20,20,20,20,20,20,20,20,20,20,20,20,20,20,20,20,20,20,20,20,20,20,20,20,20,20,20,20,20,20,20,20,20,20,20,20,20,20,20,20,20,20,20,20,20,20,20,20,20,20,20,20,20,20,20,21,21,21,21,21,21,21,21,21,21,21,21,21,21,21,21,21,21,21,21,21,21,21,21,21,21,21,21,21,21,21,21,21,21,21,21,21,21,21,21,21,21,21,21,21,21,21,21,21,21,21,21,21,22,22,22,22,22,22,22,22,22,22,22,22,22,22,22,22,22,22,22,22,22,22,22,22,22,22,22,22,22,22,22,22,22,22,22,22,22,22,22,22,22,22,22,22,22,22,22,22,22,22,22,22,22,22,22,22,22,22,22,22,23,23,23,23,23,23,23,23,23,23,23,23,23,23,23,23,23,23,23,23,23,23,23,23,23,23,23,23,23,23,23,23,23,23,23,23,23,24,24,24,24,24,24,24,24,24,24,24,24,24,24,24,24,24,24,24,24,24,24,24,24,24,24,24,24,24,24,24,24,24,24,24,24,24,24,24,24,24,24,24,24,24,24,24,24,24,24,24,24,24,24,25,25,25,25,25,25,25,25,25,25,25,25,25,25,25,25,25,25,25,25,25,25,25,25,25,25,25,25,25,25,25,25,25,25,25,25,25,25,25,25,25,25,25,25,25,25,25,25,25,25,25,25,25,25,25,25,25,25,25,26,26,26,26,26,26,26,26,26,26,26,26,26,26,26,26,26,26,26,26,26,26,26,26,26,26,26,26,26,26,26,26,26,26,26,26,26,26,26,27,27,27,27,27,27,27,27,27,27,27,27,27,27,27,27,27,27,27,27,27,27,27,27,27,27,27,27,27,27,27,27,27,27,27,27,27,27,27,27,27,27,27,27,27,27,27,27,27,28,28,28,28,28,28,28,28,28,28,28,28,28,28,28,28,28,28,28,28,28,28,28,28,28,28,28,28,28,28,28,28,28,28,28,28,28,28,28,28,28,28,28,28,28,28,28,28,28,29,29,29,29,29,29,29,29,29,29,29,29,29,29,29,29,29,29,29,29,29,29,29,29,29,29,29,29,29,29,29,29,29,29,29,29,29,29,29,29,29,29,29,29,29,29,29,29,29,29,29,29,29,29,29,30,30,30,30,30,30,30,30,30,30,30,30,30,30,30,30,30,30,30,30,30,30,30,30,30,30,30,30,30,30,30,30,30,30,30,30,30,30,30,30,30,30,30,30,30,30,30,30,30,30,30,30,30,31,31,31,31,31,31,31,31,31,31,31,31,31,31,31,31,31,31,31,31,31,31,31,31,31,31,31,31,31,31,31,31,31,31,31,31,31,31,31,31,31,31,31,31,31,31,31,31,31,31,31,31,31,31,31,31,32,32,32,32,32,32,32,32,32,32,32,32,32,32,32,32,32,32,32,32,32,32,32,32,32,32,32,32,32,32,32,32,32,32,32,32,32,32,32,32,32,32,32,32,32,32,32,32,32,32,32,32,33,33,33,33,33,33,33,33,33,33,33,33,33,33,33,33,33,33,33,33,33,33,33,33,33,33,33,33,33,33,33,33,33,33,33,33,33,33,33,33,33,33,33,33,33,33,33,33,33,33,33,33,34,34,34,34,34,34,34,34,34,34,34,34,34,34,34,34,34,34,34,34,34,34,34,34,34,34,34,34,34,34,34,34,34,34,34,34,34,34,34,34,34,34,34,34,34,34,34,34,34,34,34,34,34,34,34,34,35,35,35,35,35,35,35,35,35,35,35,35,35,35,35,35,35,35,35,35,35,35,35,35,35,35,35,35,35,35,35,35,35,35,35,35,35,35,35,35,35,35,35,35,36,36,36,36,36,36,36,36,36,36,36,36,36,36,36,36,36,36,36,36,36,36,36,36,36,36,36,36,36,36,36,36,36,36,36,36,36,36,36,36,36,36,36,36,36,36,36,36,36,36,36,36,37,37,37,37,37,37,37,37,37,37,37,37,37,37,37,37,37,37,37,37,37,37,37,37,37,37,37,37,37,37,37,37,37,37,37,37,37,37,37,37,37,37,37,37,37,37,37,37,38,38,38,38,38,38,38,38,38,38,38,38,38,38,38,38,38,38,38,38,38,38,38,38,38,38,38,38,38,38,38,38,38,38,38,38,38,38,38,38,38,38,38,38,38,38,38,38,38,38,38,38,39,39,39,39,39,39,39,39,39,39,39,39,39,39,39,39,39,39,39,39,39,39,39,39,39,39,39,39,39,39,39,39,39,39,39,39,39,39,39,39,39,39,39,39,39,39,40,40,40,40,40,40,40,40,40,40,40,40,40,40,40,40,40,40,40,40,40,40,40,40,40,40,40,40,40,40,40,40,40,40,40,40,40,40,40,40,40,40,40,40,40,41,41,41,41,41,41,41,41,41,41,41,41,41,41,41,41,41,41,41,41,41,41,41,41,41,41,41,41,41,41,41,41,41,41,41,41,41,41,41,41,41,41,41,41,41,41,41,41,41,42,42,42,42,42,42,42,42,42,42,42,42,42,42,42,42,42,42,42,42,42,42,42,42,42,42,42,42,42,42,42,42,42,42,42,42,42,42,42,42,42,42,42,42,43,43,43,43,43,43,43,43,43,43,43,43,43,43,43,43,43,43,43,43,43,43,43,43,43,43,43,43,43,43,43,43,43,43,43,43,43,43,43,43,43,44,44,44,44,44,44,44,44,44,44,44,44,44,44,44,44,44,44,44,44,44,44,44,44,44,44,44,44,44,44,44,44,44,44,44,44,44,45,45,45,45,45,45,45,45,45,45,45,45,45,45,45,45,45,45,45,45,45,45,45,45,45,45,45,45,45,45,45,45,45,45,45,45,45,45,45,45,45,45,46,46,46,46,46,46,46,46,46,46,46,46,46,46,46,46,46,46,46,46,46,46,46,46,46,46,46,46,46,46,46,46,46,46,46,46,46,47,47,47,47,47,47,47,47,47,47,47,47,47,47,47,47,47,47,47,47,47,47,47,47,47,47,47,47,47,47,47,47,47,47,47,47,47,47,47,47,48,48,48,48,48,48,48,48,48,48,48,48,48,48,48,48,48,48,48,48,48,48,48,48,48,48,48,48,48,48,48,49,49,49,49,49,49,49,49,49,49,49,49,49,49,49,49,49,49,49,49,49,49,49,49,49,49,49,49,49,49,49,49,50,50,50,50,50,50,50,50,50,50,50,50,50,50,50,50,50,50,50,50,50,50,50,50,50,50,50,50,50,50,50,50,50,50,50,50,50,50,51,51,51,51,51,51,51,51,51,51,51,51,51,51,51,51,51,51,51,51,51,51,51,51,51,51,51,51,51,51,51,51,52,52,52,52,52,52,52,52,52,52,52,52,52,52,52,52,52,52,52,52,52,52,52,52,52,52,52,52,52,52,52,52,52,52,53,53,53,53,53,53,53,53,53,53,53,53,53,53,53,53,53,53,53,53,53,53,53,53,53,53,53,53,53,53,53,53,54,54,54,54,54,54,54,54,54,54,54,54,54,54,54,54,54,54,54,54,54,54,54,54,54,54,54,54,54,54,55,55,55,55,55,55,55,55,55,55,55,55,55,55,55,55,55,55,55,55,55,55,55,55,55,55,55,55,55,55,56,56,56,56,56,56,56,56,56,56,56,56,56,56,56,56,56,56,56,56,56,56,56,56,56,56,56,56,56,57,57,57,57,57,57,57,57,57,57,57,57,57,57,57,57,57,57,57,57,57,57,57,57,57,57,57,57,57,58,58,58,58,58,58,58,58,58,58,58,58,58,58,58,58,58,58,58,58,58,58,58,58,58,58,58,58,58,59,59,59,59,59,59,59,59,59,59,59,59,59,59,59,59,59,59,59,59,59,59,59,59,59,60,60,60,60,60,60,60,60,60,60,60,60,60,60,60,60,60,60,60,60,60,60,60,60,60,61,61,61,61,61,61,61,61,61,61,61,61,61,61,61,61,61,61,61,62,62,62,62,62,62,62,62,62,62,62,62,62,62,62,62,62,62,62,62,63,63,63,63,63,63,63,63,63,63,63,63,63,63,63,63,63,63,63,63,63,63,63,63,64,64,64,64,64,64,64,64,64,64,64,64,64,64,64,64,64,64,64,64,64,64,64,64,64,65,65,65,65,65,65,65,65,65,65,65,65,65,65,65,65,65,65,65,65,65,66,66,66,66,66,66,66,66,66,66,66,66,66,66,66,66,66,66,66,66,67,67,67,67,67,67,67,67,67,67,67,67,67,67,67,67,67,67,67,67,67,68,68,68,68,68,68,68,68,68,68,68,68,68,68,68,68,68,68,68,69,69,69,69,69,69,69,69,69,69,69,69,69,69,69,69,70,70,70,70,70,70,70,70,70,70,70,70,70,70,70,70,71,71,71,71,71,71,71,71,71,71,71,71,71,71,71,71,72,72,72,72,72,72,72,72,72,72,72,72,72,72,72,72,73,73,73,73,73,73,73,73,73,73,73,73,73,73,74,74,74,74,74,74,74,74,74,74,74,74,74,74,75,75,75,75,75,75,75,75,75,75,75,75,75,75,76,76,76,76,76,76,76,76,76,76,76,76,77,77,77,77,77,77,77,77,77,77,77,77,78,78,78,78,78,78,78,78,78,78,79,79,79,79,79,79,79,79,80,80,80,80,80,80,80,80,80,81,81,81,81,81,81,81,82,82,82,82,82,82,82,83,83,83,83,83,83,83,84,84,84,84,84,85,85,85,86,86,86,87,87,87,88,88,89,89,90];
unsucc = [3,4,5,6,8,10,11,12,14,15,20,27,35,37,40,41,43,44,49,51,60,72,4,5,6,7,9,12,13,14,15,16,17,18,19,20,21,22,23,24,25,26,27,28,29,30,31,32,33,34,35,36,38,39,40,41,42,45,46,47,48,49,50,52,53,54,55,56,57,58,60,61,63,64,66,67,68,72,73,75,76,78,80,7,8,9,10,11,17,19,21,22,23,26,28,29,30,31,32,33,36,37,42,43,44,45,46,47,51,53,54,55,57,58,59,63,67,75,78,80,84,6,7,8,9,10,11,12,13,15,16,17,18,19,20,21,22,23,24,25,26,28,29,30,31,32,33,34,36,37,38,39,41,42,43,44,45,46,47,48,50,51,52,53,54,55,57,58,59,62,63,67,68,69,70,73,75,78,79,80,81,82,83,84,85,7,8,9,10,11,12,13,14,16,17,18,19,20,21,22,23,25,26,27,28,29,30,31,32,33,34,35,36,37,38,39,40,41,42,43,44,45,46,47,48,49,50,51,52,53,54,55,56,57,58,59,60,62,63,65,67,68,69,72,73,75,78,79,80,81,82,83,84,85,8,10,11,12,14,15,20,27,35,37,40,41,43,44,49,51,60,72,9,10,11,12,13,14,15,16,17,18,19,20,21,22,23,24,25,26,27,28,29,30,31,32,33,34,35,36,37,38,39,40,41,42,43,45,46,47,48,49,50,51,52,53,54,55,56,57,58,59,60,61,63,64,65,66,67,68,69,70,71,72,73,74,75,76,78,80,84,86,88,89,10,11,12,14,15,19,20,21,22,24,27,29,35,37,40,41,42,43,44,47,49,51,53,60,61,63,64,66,72,75,11,12,13,14,15,16,17,18,19,20,21,22,23,24,25,26,27,28,29,30,31,32,33,34,35,36,38,39,40,41,42,44,45,46,47,48,49,50,51,52,53,54,55,56,57,58,59,60,61,62,63,64,66,67,68,69,72,73,75,76,77,78,79,80,81,82,83,85,87,91,12,13,14,15,16,17,18,19,20,21,22,23,24,25,26,27,28,29,30,31,32,33,34,35,36,37,38,39,40,41,42,43,44,45,46,47,48,49,50,52,53,54,55,56,57,58,60,61,62,63,64,65,66,67,68,71,72,73,75,76,77,78,79,80,81,82,83,84,85,87,91,14,15,17,19,21,22,23,24,26,27,28,29,30,31,32,33,35,36,37,40,42,43,44,45,46,47,49,51,53,54,55,57,58,59,61,63,64,67,72,75,78,80,84,14,15,17,19,20,21,22,23,24,26,27,28,29,30,31,32,33,35,36,37,40,41,42,43,44,45,46,47,49,51,53,54,55,57,58,59,60,61,63,64,66,67,72,75,78,80,84,15,16,17,18,19,20,21,22,23,24,25,26,28,29,30,31,32,33,34,36,37,38,39,41,42,43,44,45,46,47,48,50,51,52,53,54,55,56,57,58,59,61,62,63,65,67,68,69,70,71,73,74,75,78,79,80,81,82,83,84,85,16,17,18,19,20,21,22,23,24,25,26,27,28,29,30,31,32,33,34,35,36,37,38,39,40,41,42,43,44,45,46,47,48,49,50,51,52,53,54,55,56,57,58,59,60,61,62,63,64,65,66,67,68,69,71,72,73,75,76,77,78,79,80,81,82,83,84,85,87,91,17,18,19,20,21,22,23,24,25,26,27,28,29,30,31,32,33,35,36,37,40,41,42,43,44,45,46,47,48,49,50,51,53,54,55,56,57,58,59,60,61,62,63,64,65,66,67,68,69,70,71,72,74,75,76,77,78,79,80,81,82,83,84,86,88,18,19,20,21,22,24,25,27,29,34,35,37,38,39,40,41,42,43,44,47,48,49,50,51,53,56,60,61,62,63,64,65,66,68,72,75,76,77,79,19,20,21,22,23,24,25,26,27,28,29,30,31,32,33,34,35,36,37,38,39,40,41,42,43,44,45,46,47,49,51,52,53,54,55,57,58,59,60,61,63,64,66,67,69,70,72,73,75,78,80,84,20,22,23,25,26,27,28,29,30,31,32,33,34,35,36,37,38,39,40,41,42,43,44,45,46,48,49,50,51,52,54,55,56,59,60,62,65,67,68,69,70,72,73,75,79,80,21,22,23,24,25,26,27,28,29,30,31,32,33,34,35,36,37,38,39,40,42,43,44,45,46,47,48,49,50,51,52,53,54,55,56,57,58,59,60,61,62,63,64,65,66,67,68,69,70,71,72,73,74,75,76,77,78,79,80,81,82,83,84,85,86,87,88,89,91,22,23,25,26,27,28,29,30,31,32,33,34,35,36,37,38,39,40,41,42,43,44,45,46,48,49,50,51,52,53,54,55,56,57,58,59,60,62,63,65,67,68,69,70,72,73,75,78,79,80,81,82,83,23,24,25,26,27,28,30,31,32,33,34,35,36,37,38,39,40,41,43,44,45,46,47,48,49,50,51,52,53,54,55,56,57,58,59,60,61,62,63,64,65,66,67,68,69,70,71,72,73,74,76,77,78,80,81,82,84,86,88,89,24,25,27,29,31,34,35,36,37,38,39,40,41,42,43,44,47,48,49,50,51,53,56,60,61,62,63,64,65,66,68,72,75,76,77,79,84,25,26,27,28,29,30,31,32,33,34,35,36,37,38,39,40,41,42,43,44,45,46,47,48,49,50,51,52,53,54,55,56,57,58,59,60,62,63,65,67,68,69,70,72,73,75,78,79,80,81,82,83,84,85,26,27,28,29,30,31,32,33,34,35,36,37,38,39,40,41,42,43,44,45,46,47,48,49,50,51,52,53,54,55,56,57,58,59,60,61,62,63,64,65,66,67,68,71,72,73,75,76,77,78,79,80,81,82,83,84,85,87,91,27,29,31,34,35,36,37,38,39,40,41,42,43,44,46,47,48,49,50,51,53,56,59,60,61,62,63,64,65,66,68,69,70,72,75,76,77,79,84,28,29,30,31,32,33,34,36,37,38,39,41,42,43,44,45,46,47,48,50,51,52,53,54,55,56,57,58,59,61,62,63,65,67,68,69,70,71,73,74,75,78,79,80,81,82,83,84,85,29,30,31,32,33,34,35,36,37,38,39,40,41,42,43,44,46,47,48,49,50,51,53,56,59,60,61,62,63,64,65,66,67,68,69,70,71,72,74,75,76,77,78,79,80,84,86,88,89,30,31,32,33,34,35,36,37,38,39,40,41,43,44,45,46,47,48,49,50,51,52,53,54,55,56,57,58,59,60,61,62,63,64,65,66,67,68,69,70,71,72,73,74,75,76,77,78,80,81,82,84,86,88,89,31,34,35,36,37,38,39,40,41,42,43,44,45,46,47,48,49,50,51,52,53,54,55,56,57,58,59,60,61,62,63,64,65,66,67,68,69,70,72,73,75,76,77,79,80,81,82,83,84,85,87,90,91,32,33,34,35,36,37,38,39,40,41,42,43,44,45,46,47,48,49,50,51,52,53,54,55,56,57,58,59,60,61,62,63,64,65,66,67,68,69,70,71,72,73,75,76,77,78,79,80,81,82,83,84,85,87,90,91,34,35,36,37,38,39,40,41,42,43,44,45,46,47,48,49,50,51,52,53,54,55,56,57,58,59,60,61,62,63,64,65,66,67,68,69,70,72,73,75,76,77,79,80,81,82,83,84,85,87,90,91,34,35,36,37,38,39,40,41,42,43,44,45,46,47,48,49,50,51,52,53,54,55,56,57,58,59,60,61,62,63,64,65,66,67,68,69,70,72,73,75,76,77,79,80,81,82,83,84,85,87,90,91,35,36,37,38,39,40,41,42,43,44,45,46,47,48,49,50,51,52,53,54,55,56,57,58,59,60,61,62,63,64,65,66,67,68,69,70,71,72,73,74,75,76,77,78,79,80,81,82,83,84,85,86,87,88,90,91,36,37,38,39,41,42,43,44,45,46,47,48,50,51,52,53,54,55,56,57,58,59,61,62,63,65,67,68,69,70,71,72,73,74,75,78,79,80,81,82,83,84,85,86,37,38,39,40,41,42,43,44,45,46,47,48,49,50,51,52,53,54,55,56,57,58,59,60,61,62,63,64,65,66,67,68,69,70,71,72,73,74,75,76,77,78,79,80,81,82,83,85,86,87,90,91,38,39,40,41,42,43,44,45,46,47,48,49,50,51,52,53,54,55,56,57,58,59,60,61,62,63,64,65,66,67,68,69,71,72,73,75,76,77,78,79,80,81,82,83,84,85,87,91,39,40,41,42,43,44,45,46,47,48,49,50,51,52,53,54,55,56,57,58,59,60,61,62,63,64,65,66,67,68,69,70,71,72,73,74,75,76,77,78,79,80,81,82,83,84,85,86,87,88,90,91,40,41,42,43,44,45,46,47,48,49,50,51,53,54,55,56,57,58,59,60,61,62,63,64,65,66,67,68,69,70,71,72,74,75,76,77,78,79,80,81,82,83,84,86,88,89,41,42,43,44,45,46,47,48,49,50,51,52,53,54,55,56,57,58,59,60,61,62,63,64,65,67,68,69,70,71,72,73,74,75,78,79,80,81,82,83,84,85,86,88,89,42,43,44,45,46,47,48,49,50,51,52,53,54,55,56,57,58,59,60,61,62,63,64,65,66,67,68,69,70,71,72,73,74,75,76,77,78,79,80,81,82,83,84,85,86,87,88,89,91,43,44,45,46,47,48,49,50,51,52,53,54,55,56,57,58,59,60,61,62,63,64,65,66,67,68,69,70,71,72,73,74,75,76,77,78,80,81,82,83,84,86,88,89,44,45,46,47,48,49,50,51,52,53,54,55,56,57,58,59,60,61,62,63,64,66,67,68,69,70,72,73,75,76,77,78,79,80,81,82,83,85,87,90,91,45,46,47,48,49,50,51,52,53,54,55,56,57,58,59,60,61,63,64,65,66,67,68,69,70,71,72,73,74,75,76,78,80,84,86,88,89,46,47,48,49,50,51,52,53,54,55,56,57,58,59,60,61,62,63,64,65,66,67,68,69,70,71,72,73,74,75,76,77,78,79,80,84,85,86,87,88,89,90,47,48,49,50,51,52,53,54,55,56,57,58,60,61,62,63,64,65,66,67,68,71,72,73,75,76,77,78,79,80,81,82,83,84,85,87,91,48,49,50,51,52,53,54,55,56,57,58,59,60,61,62,63,64,65,66,67,68,69,70,71,72,73,74,75,76,77,78,79,80,81,82,83,84,86,88,89,49,50,51,52,53,54,55,57,58,59,60,61,62,63,64,66,67,69,70,72,73,75,78,79,80,81,82,83,84,85,91,50,51,52,53,54,55,56,57,58,59,61,62,63,65,67,68,69,70,71,72,73,74,75,78,79,80,81,82,83,84,85,86,51,52,53,54,55,56,57,58,59,60,61,62,63,64,65,66,67,68,69,70,71,72,73,74,75,76,77,78,79,80,81,84,85,86,87,88,89,90,52,53,54,55,56,57,58,60,61,62,63,64,65,66,67,68,71,72,73,75,76,77,78,79,80,81,82,83,84,85,87,91,53,54,55,56,57,58,59,60,61,62,63,64,65,66,67,68,69,70,71,72,74,75,76,77,78,79,80,81,82,83,84,86,88,89,54,55,56,59,60,61,62,63,64,65,66,67,68,69,70,71,72,73,74,75,76,77,78,79,80,84,85,86,87,88,89,90,56,59,60,61,62,63,64,65,66,67,68,69,70,71,72,73,74,75,76,77,78,79,80,84,85,86,87,88,89,90,56,59,60,61,62,63,64,65,66,67,68,69,70,71,72,73,74,75,76,77,78,79,80,84,85,86,87,88,89,90,57,58,59,60,61,62,63,64,66,67,68,69,70,72,73,75,76,77,78,79,80,81,82,83,84,85,87,90,91,59,60,61,62,63,64,65,66,67,68,69,70,71,72,73,74,75,76,77,78,79,80,84,85,86,87,88,89,90,59,60,61,62,63,64,65,66,67,68,69,70,71,72,73,74,75,76,77,78,79,80,84,85,86,87,88,89,90,60,61,62,63,64,65,66,67,68,71,72,73,75,76,77,78,79,80,81,82,83,84,85,87,91,61,62,63,64,65,67,68,69,70,71,72,73,74,75,78,79,80,81,82,83,84,85,86,88,89,62,63,64,65,67,68,69,70,72,73,75,78,79,80,81,82,83,84,85,63,64,65,66,67,68,69,70,71,72,73,74,75,76,78,80,84,86,88,89,64,65,66,67,68,69,70,71,72,73,74,75,76,77,79,80,81,82,83,84,85,87,90,91,65,66,67,68,69,70,71,72,73,74,75,76,77,78,79,80,81,82,83,84,85,86,87,90,91,66,67,68,69,70,72,73,75,76,77,78,79,80,81,82,83,84,85,87,90,91,67,68,69,70,71,72,73,74,75,78,79,80,81,82,83,84,85,86,88,89,68,69,70,71,72,73,74,75,76,77,78,79,81,82,83,84,85,86,88,89,91,69,70,71,72,73,74,75,78,79,80,81,82,83,84,85,86,88,89,91,71,72,73,75,76,77,78,79,80,81,82,83,84,85,87,91,71,72,73,75,76,77,78,79,80,81,82,83,84,85,87,91,72,73,75,76,77,78,79,80,81,82,83,84,85,87,90,91,73,74,75,76,77,78,79,80,81,82,83,84,85,87,90,91,74,75,76,77,78,79,80,81,82,83,84,86,88,89,75,76,77,78,79,80,81,82,83,84,85,87,90,91,76,77,78,79,80,81,82,84,85,86,87,88,89,90,78,79,80,81,82,83,84,85,86,88,89,91,78,79,80,81,82,83,84,85,86,88,89,91,79,80,81,82,83,84,85,87,90,91,80,81,82,83,84,86,88,89,81,82,83,84,85,86,88,89,91,84,85,86,87,88,89,90,84,85,86,87,88,89,90,84,85,86,87,88,89,90,85,86,87,90,91,86,88,89,87,90,91,88,89,91,90,91,90,91,91];

USEFUL_RES = [{},
	{1,4,5,13,18,20},
	{1,2,3,6,8,9,10,11,12,13,14,15,16,17,18,19},
	{1,2,3,6,9,10,11,12,15,16,17,19},
	{3,9,10,11,16,17},
	{1,2,3,6,7,8,9,10,11,12,13,14,15,16,17,18},
	{13,18},
	{1,2,6,8,9,12,13,14,15,18},
	{1,2,3,6,8,9,10,11,12,13,14,15,16,17,18,19},
	{1,2,6,9,12,15},
	{1,2,3,4,5,6,7,8,9,10,12,13,14,15,16,17,18,20},
	{1,2,3,4,5,6,8,9,10,11,12,13,14,15,16,17,18,19,20},
	{1,2,3,4,5,6,8,9,10,11,12,13,14,15,16,17,18,20},
	{1,2,3,4,5,6,7,8,9,10,11,12,13,14,15,16,17,18,19,20},
	{1,2,3,6,7,8,9,10,11,12,14,15,16,17,19},
	{1,3,9,10,11,13,16,17,18,19},
	{1,3,9,10,11,13,16,17,18,19},
	{1,2,4,5,6,7,8,9,12,13,14,15,18,20},
	{1,2,3,4,5,6,8,9,10,11,12,13,14,15,16,17,18,20},
	{1,3,4,5,9,10,11,12,13,16,17,18,19,20},
	{3,9,10,11,16,17},
	{3,6,7,10,16,17},
	{1,2,3,4,5,6,8,9,10,11,12,13,14,15,16,17,18,19,20},
	{1,2,6,8,9,12,14,15},
	{1,2,3,4,5,6,7,8,9,10,11,12,13,14,15,16,17,18,19,20},
	{6,7},
	{1,2,3,6,7,8,9,10,11,12,14,15,16,17,19},
	{1,3,9,10,12,16,17},
	{1,2,3,6,7,8,9,10,11,12,14,15,16,17,19},
	{1,2,3,4,5,6,8,9,10,11,12,13,14,15,16,17,18,20},
	{1,2,3,6,7,8,9,10,11,12,14,15,16,17,19},
	{1,2,3,6,8,9,10,11,12,14,15,16,17},
	{1,2,3,6,8,9,10,11,12,14,15,16,17,19},
	{1,2,3,6,9,10,11,12,15,16,17},
	{1,2,3,6,7,8,9,10,12,14,15,16,17},
	{1,3,9,10,11,16,17,19},
	{1,2,3,6,8,9,10,11,12,14,15,16,17,19},
	{1,3,4,5,9,10,11,12,13,16,17,18,20},
	{1,2,3,6,8,9,10,11,12,14,15,16,17,19},
	{1,3,4,5,9,10,11,13,16,17,18,19,20},
	{1,3,9,10,11,16,17,19},
	{1,2,3,4,5,6,7,8,9,10,11,12,13,14,15,16,17,18,19,20},
	{1,3,4,5,9,10,11,13,16,17,18,20},
	{1,2,6,9,12,15},
	{1,2,6,9,12,15},
	{1,2,3,6,7,8,9,10,11,12,14,15,16,17,19},
	{3,9,10,11,16,17},
	{1,3,9,10,11,16,17,19},
	{1,2,3,6,9,10,11,12,15,16,17,19},
	{1,4,5,9,12,13,18,20},
	{1,2,3,4,5,6,7,8,9,10,11,12,13,14,15,16,17,18,19,20},
	{1,2,6,7,8,9,12,14,15},
	{1,2,3,6,8,9,10,11,12,14,15,16,17,19},
	{1,2,3,6,8,9,10,11,12,13,14,15,16,17,18,19},
	{1,2,4,5,6,8,9,12,13,14,15,18,20},
	{1,2,4,5,6,8,9,12,13,14,15,18,20},
	{1,2,3,6,7,8,9,10,11,12,13,14,15,16,17,18,19},
	{1,2,3,6,8,9,10,11,12,14,15,16,17},
	{1,2,3,6,8,9,10,11,12,14,15,16,17,19},
	{1,2,3,6,8,9,10,11,12,13,14,15,16,17},
	{1,2,3,4,5,6,7,9,10,11,12,13,15,16,17,18,19,20},
	{1,4,5,13,18,20},
	{1,3,6,7,9,10,11,13,16,17,19},
	{1,3,4,5,6,7,9,10,11,13,16,17,18,20},
	{1,2,3,6,8,9,10,11,12,14,15,16,17,19},
	{1,2,3,4,5,6,8,9,10,11,12,13,14,15,16,17,18,19,20},
	{1,2,3,6,9,10,11,12,13,15,16,17,18,19},
	{1,2,6,9,12,15},
	{3,9,10,11,16,17},
	{1,2,3,6,8,9,10,11,12,14,15,16,17},
	{1,2,3,6,8,9,10,11,12,14,15,16,17,19},
	{1,2,3,6,8,9,10,11,12,14,15,16,17,19},
	{1,2,6,8,9,12,14,15},
	{1,3,4,5,6,7,9,10,11,12,13,16,17,18,19,20},
	{1,2,6,9,12,15},
	{1,2,3,6,7,8,9,10,11,12,14,15,16,17,19},
	{1,2,3,6,9,10,11,12,13,15,16,17,18,19},
	{1,2,3,4,5,6,8,9,10,11,12,13,14,15,16,17,18,19,20},
	{1,2,3,6,8,9,10,11,12,14,15,16,17,19},
	{1,2,3,4,5,6,9,10,11,12,13,15,16,17,18,19,20},
	{1,2,3,4,5,6,8,9,10,11,12,13,14,15,16,17,18,19,20},
	{1,2,3,6,8,9,10,11,12,14,15,16,17,19},
	{1,2,3,4,5,6,9,10,12,13,15,16,17,18,20},
	{1,2,3,4,5,6,8,9,10,11,12,13,14,15,16,17,18,19,20},
	{1,2,3,4,5,6,7,9,10,11,12,13,15,16,17,18,19,20},
	{1,2,6,9,12,15},
	{3,9,10,11,13,16,17,18},
	{1,2,6,9,12,15},
	{1,3,4,5,9,10,11,12,13,16,17,18,19,20},
	{1,2,3,4,5,6,9,10,11,12,13,15,16,17,18,19,20},
	{1,3,4,5,6,7,9,10,11,13,16,17,18,19,20},
	{}];

POTENTIAL_ACT = [{2,3,4,6,8,9,10,11,12,13,14,15,16,17,18,19,20,23,24,25,27,28,29,30,31,32,33,34,35,36,37,38,39,40,41,42,43,44,45,46,48,49,50,51,52,53,54,55,56,57,58,59,60,61,62,63,64,65,66,67,68,70,71,72,73,74,75,76,77,78,79,80,81,82,83,84,85,86,88,89,90,91},
	{3,4,6,8,9,10,11,12,13,14,15,18,19,23,24,25,27,29,30,31,32,33,34,35,37,39,42,44,45,46,49,51,52,53,54,55,56,57,58,59,60,61,65,66,67,68,70,71,72,73,75,76,77,78,79,80,81,82,83,84,85,86,88,90},
	{3,4,5,6,9,11,12,13,14,15,16,17,19,20,21,22,23,25,27,28,29,30,31,32,33,34,35,36,37,38,39,40,41,42,43,46,47,48,49,51,53,54,57,58,59,60,61,63,64,65,66,67,69,70,71,72,74,76,77,78,79,80,81,82,83,84,85,87,89,90,91},
	{2,11,12,13,14,18,19,20,23,25,30,38,40,42,43,50,51,55,56,61,62,64,66,74,78,80,81,83,84,85,89,90,91},
	{2,11,12,13,14,18,19,20,23,25,30,38,40,42,43,50,51,55,56,61,62,64,66,74,78,80,81,83,84,85,89,90,91},
	{3,4,6,8,9,10,11,12,13,14,15,18,19,22,23,24,25,26,27,29,30,31,32,33,34,35,37,39,42,44,45,46,49,51,52,53,54,55,56,57,58,59,60,61,63,64,65,66,67,68,70,71,72,73,74,75,76,77,78,79,80,81,82,83,84,85,86,88,90,91},
	{6,11,14,15,18,22,25,26,27,29,31,35,42,46,51,52,57,61,63,64,74,76,85,91},
	{3,6,8,9,11,12,13,14,15,18,19,23,24,25,27,29,30,31,32,33,35,37,39,42,46,51,52,53,54,55,56,57,58,59,60,65,66,70,71,72,73,76,78,79,81,82,84},
	{3,4,5,6,8,9,10,11,12,13,14,15,16,17,18,19,20,21,23,24,25,27,28,29,30,31,32,33,34,35,36,37,38,39,40,41,42,43,44,45,46,47,48,49,50,51,52,53,54,55,56,57,58,59,60,61,63,64,65,66,67,68,69,70,71,72,73,74,75,76,77,78,79,80,81,82,83,84,85,86,87,88,89,90,91},
	{3,4,5,6,9,11,12,13,14,15,16,17,19,20,21,22,23,25,27,28,29,30,31,32,33,34,35,36,37,38,39,40,41,42,43,46,47,48,49,51,53,54,57,58,59,60,61,63,64,65,66,67,69,70,71,72,74,76,77,78,79,80,81,82,83,84,85,87,89,90,91},
	{3,4,5,6,9,12,13,14,15,16,17,19,20,21,23,25,27,29,30,31,32,33,34,36,37,38,39,40,41,42,43,46,47,48,49,51,53,54,57,58,59,60,61,63,64,65,66,67,69,70,71,72,74,76,77,78,79,80,81,82,84,85,87,89,90,91},
	{3,4,6,8,9,10,11,12,13,14,15,18,19,20,23,24,25,27,28,29,30,31,32,33,34,35,37,38,39,42,44,45,46,49,50,51,52,53,54,55,56,57,58,59,60,61,65,66,67,68,70,71,72,73,74,75,76,77,78,79,80,81,82,83,84,85,86,88,89,90},
	{2,3,6,7,8,9,11,12,13,14,16,17,18,19,20,23,25,30,38,40,42,43,50,51,54,55,56,57,60,61,62,63,64,66,67,74,77,78,80,81,83,84,85,87,89,90,91},
	{3,6,8,9,11,12,13,14,15,18,19,23,24,25,27,29,30,31,32,33,35,37,39,42,46,51,52,53,54,55,56,57,58,59,60,65,66,70,71,72,73,76,78,79,81,82,84},
	{3,4,6,8,9,10,11,12,13,14,15,18,19,23,24,25,27,29,30,31,32,33,34,35,37,39,42,44,45,46,49,51,52,53,54,55,56,57,58,59,60,61,65,66,67,68,70,71,72,73,75,76,77,78,79,80,81,82,83,84,85,86,88,90},
	{3,4,5,6,9,11,12,13,14,15,16,17,19,20,21,22,23,25,27,28,29,30,31,32,33,34,35,36,37,38,39,40,41,42,43,46,47,48,49,51,53,54,57,58,59,60,61,63,64,65,66,67,69,70,71,72,74,76,77,78,79,80,81,82,83,84,85,87,89,90,91},
	{3,4,5,6,9,11,12,13,14,15,16,17,19,20,21,22,23,25,27,28,29,30,31,32,33,34,35,36,37,38,39,40,41,42,43,46,47,48,49,51,53,54,57,58,59,60,61,63,64,65,66,67,69,70,71,72,74,76,77,78,79,80,81,82,83,84,85,87,89,90,91},
	{2,3,6,7,8,9,11,12,13,14,16,17,18,19,20,23,25,30,38,40,42,43,50,51,54,55,56,57,61,62,64,66,67,74,77,78,80,81,83,84,85,87,89,90,91},
	{3,4,9,12,14,15,16,17,20,23,25,27,29,31,33,36,37,39,40,41,42,46,48,49,51,53,54,57,59,61,63,65,66,67,71,72,74,76,77,78,79,80,81,82,84,85,89,90,91},
	{2,11,12,13,14,18,19,20,23,25,30,38,40,42,43,50,51,55,56,61,62,64,66,74,78,80,81,83,84,85,89,90,91}];
